unsat
(forall ((A (_ BitVec 21))
         (B (_ BitVec 18))
         (C (_ BitVec 17))
         (D (_ BitVec 3))
         (E (_ BitVec 18))
         (F (_ BitVec 18))
         (G (_ BitVec 21))
         (H (_ BitVec 21))
         (I (_ BitVec 21))
         (J (_ BitVec 1))
         (K (_ BitVec 1))
         (L (_ BitVec 21))
         (M (_ BitVec 21))
         (N (_ BitVec 8))
         (O (_ BitVec 1))
         (P (_ BitVec 18))
         (Q (_ BitVec 54))
         (R (_ BitVec 21))
         (S (_ BitVec 1))
         (T (_ BitVec 1))
         (U (_ BitVec 1))
         (V (_ BitVec 21))
         (W (_ BitVec 1))
         (X (_ BitVec 21))
         (Y (_ BitVec 21))
         (Z (_ BitVec 21))
         (A1 (_ BitVec 21))
         (B1 (_ BitVec 1))
         (C1 (_ BitVec 1))
         (D1 (_ BitVec 63))
         (E1 (_ BitVec 40))
         (F1 (_ BitVec 40))
         (G1 (_ BitVec 17))
         (H1 (_ BitVec 32))
         (I1 (_ BitVec 32))
         (J1 (_ BitVec 21))
         (K1 (_ BitVec 21))
         (L1 (_ BitVec 18))
         (M1 (_ BitVec 18))
         (N1 (_ BitVec 21))
         (O1 (_ BitVec 21))
         (P1 (_ BitVec 32))
         (Q1 (_ BitVec 1))
         (R1 (_ BitVec 40))
         (S1 (_ BitVec 32))
         (T1 (_ BitVec 1)))
  (! (let ((a!1 (and (= ((_ extract 17 3) F) #b000000000000000)
                     (= ((_ extract 17 3) M1) #b000000000000000)
                     (or (= U #b1) (= ((_ extract 17 3) B) #b000000000000000))
                     (= ((_ extract 17 3) E) #b000000000000000)
                     (or (not (= U #b1))
                         (= ((_ extract 17 3) B) #b000000000000000))
                     (or (= D #b011) (not (= U #b1)) (not (= S #b1)))
                     (or (= D #b011) (not (= S #b1)) (not (= J #b1)))
                     (= ((_ extract 17 3) L1) #b000000000000000)
                     (or (not (= U #b1)) (not (= D #b001))))))
       (= (INV!slice!1 A
                       B
                       C
                       D
                       E
                       F
                       G
                       H
                       I
                       J
                       K
                       L
                       M
                       N
                       O
                       P
                       Q
                       R
                       S
                       T
                       U
                       V
                       W
                       X
                       Y
                       Z
                       A1
                       B1
                       C1
                       D1
                       E1
                       F1
                       G1
                       H1
                       I1
                       J1
                       K1
                       L1
                       M1
                       N1
                       O1
                       P1
                       Q1
                       R1
                       S1
                       T1)
          a!1))
     :weight 0))
